(set-info :smt-lib-version 2.6)
(set-logic QF_FP)
(set-option :produce-models true)
(set-info :source |Random FP created by PyMPF|)
(set-info :license |https://www.gnu.org/licenses/gpl-3.0.html|)
(set-info :category random)
(set-info :status sat)
(declare-const x Float32)
(assert (= x (fp #b0 #b10010011 #b00010000001001110000100)))
;; x should be Float32(0x49881384 [Rational(2229473, 2), 1114736.500000])

(declare-const y Float32)
(assert (= y (fp #b0 #b00000000 #b11111111111111111111111)))
;; y should be Float32(0x007FFFFF [Rational(8388607, 713623846352979940529142984724747568191373312), 0.000000])

(declare-const z Float32)
(assert (= z (fp #b1 #b00000000 #b11111110001001010000001)))
;; z should be Float32(0x807F1281 [Rational(-8327809, 713623846352979940529142984724747568191373312), -0.000000])

(declare-const result Float32)
(assert (= result (fp.fma RTN x y z)))
(assert (= result (fp #b0 #b00010101 #b00010000001001101111010)))
(check-sat)
(exit)
